c FILE: I11.clq
c
c SOURCE: Manually created by Breno Viana
c
c Graph Stats
c number of vertices  : 30
c number of edges     : 54
p col 30 54
e 1 2
e 1 3
e 1 4
e 1 5
e 1 6
e 1 7
e 1 8
e 2 3
e 2 4
e 2 5
e 2 6
e 2 9
e 2 10
e 3 4
e 3 5
e 3 6
e 3 11
e 3 12
e 4 5
e 4 6
e 4 13
e 4 14
e 5 6
e 5 15
e 5 16
e 5 17
e 6 18
e 6 19
e 6 20
e 6 21
e 7 8
e 9 10
e 11 12
e 13 14
e 15 16
e 15 17
e 16 17
e 18 19
e 19 20
e 19 22
e 20 21
e 20 22
e 20 23
e 21 23
e 21 24
e 21 25
e 22 25
e 23 24
e 24 25
e 25 26
e 26 27
e 27 28
e 28 29
e 29 30
